17	4	3
19	30	26	24	23	29	36	
0	0	0	0	0	6	7	8	8	8	3	3	2	3	4
9	3	0	1	0	7	5	2	8	9	9	3	5	8	16
8	8	7	0	0	7	5	7	6	7	6	3	6	12	14
1	2	2	5	2	2	6	1	8	6	9	3	9	10	17
6	5	0	0	10	6	2	5	6	1	9	1	7
150	7	2	1	5	4	7	5	2	5	3	1	17
125	1	0	9	3	5	1	8	6	9	6	2	11	17
150	3	6	1	0	5	5	10	1	1	7	1	17
200	1	0	0	9	6	3	3	7	10	8	1	13
25	4	5	2	1	5	5	9	10	10	9	2	14	17
150	9	7	0	1	8	4	6	3	5	10	1	17
200	2	10	5	4	5	9	10	2	5	8	1	17
2	0	7	9	2	8	10	3	8	10	4	1	17
5	0	10	8	8	5	6	6	7	2	5	2	15	17
5	6	8	7	7	4	7	10	3	7	9	1	17
5	0	4	7	0	2	4	2	7	6	7	1	17
0	0	0	0	0	6	1	6	6	3	1	0
